p cnf 31 81
a 17 6 0
e 1 2 3 4 5 7 8 9 10 11 12 13 14 15 16 18 19 20 21 22 23 24 25 26 27 28 29 30 31 0
-3 -1 0
-3 -2 0
1 2 3 0
-5 -3 0
-5 -4 0
3 4 5 0
7 -5 0
7 -6 0
5 6 -7 0
8 7 0
8 -7 0
-9 -6 -10 0
9 6 -10 0
-9 6 10 0
9 -6 10 0
13 -9 0
13 -12 0
9 12 -13 0
-14 13 0
-14 -1 0
-13 1 14 0
-15 -14 0
-15 12 0
14 -12 15 0
15 6 -16 0
-15 -6 -16 0
15 -6 16 0
-15 6 16 0
11 16 -17 0
-11 -16 -17 0
11 -16 17 0
-11 16 17 0
18 -10 0
18 -17 0
10 17 -18 0
19 8 0
19 18 0
-8 -18 -19 0
-20 12 0
-20 4 0
-12 -4 20 0
-21 -20 0
-21 20 0
22 -11 0
22 -21 0
11 21 -22 0
23 -11 0
23 -9 0
11 9 -23 0
24 -22 0
24 23 0
22 -23 -24 0
-19 24 -25 0
19 -24 -25 0
-19 -24 25 0
19 24 25 0
-22 -2 -26 0
22 2 -26 0
-22 2 26 0
22 -2 26 0
-22 -26 -27 0
22 26 -27 0
-22 26 27 0
22 -26 27 0
-29 -9 0
-29 -28 0
9 28 29 0
30 27 0
30 -29 0
-27 29 -30 0
-31 -25 0
-31 -30 0
25 30 31 0
-20 -25 11 0
12 13 21 27 11 19 28 -16 0
-2 9 8 -27 -14 -19 0
17 -10 26 -15 21 0
-8 -6 -1 18 25 30 0
4 14 22 -23 -9 30 -7 0
17 -3 -31 9 -16 1 0
31 0
